nN = 10;
nR = 30;
nH = 1;

a = [[20, 19, 24, 16, 25, 15, 21, 24, 19, 22, 18, 18, 18, 15, 20, 21, 22, 21, 19, 20, 19, 17, 16, 15, 20, 20, 20, 25, 22, 23], [20, 19, 18, 15, 21, 21, 19, 15, 21, 19, 16, 20, 15, 17, 25, 23, 15, 24, 23, 22, 20, 25, 21, 19, 21, 20, 16, 18, 18, 25], [24, 22, 18, 25, 18, 22, 22, 17, 16, 18, 16, 20, 19, 18, 19, 23, 16, 20, 20, 17, 24, 18, 15, 24, 18, 21, 23, 21, 15, 25], [17, 17, 24, 22, 19, 25, 19, 15, 18, 22, 22, 24, 16, 15, 19, 15, 25, 20, 16, 20, 16, 20, 21, 18, 18, 21, 23, 15, 18, 15], [17, 25, 15, 22, 17, 15, 23, 21, 23, 20, 18, 19, 23, 20, 25, 19, 20, 22, 20, 17, 23, 20, 20, 17, 18, 24, 16, 20, 22, 22], [24, 20, 22, 23, 21, 21, 22, 21, 17, 24, 23, 15, 16, 17, 24, 23, 22, 17, 23, 19, 19, 21, 22, 24, 23, 17, 21, 25, 21, 17], [17, 20, 21, 15, 19, 19, 25, 24, 18, 17, 21, 16, 22, 16, 20, 20, 18, 20, 17, 22, 19, 17, 22, 19, 20, 23, 24, 20, 18, 16], [17, 22, 19, 22, 21, 20, 25, 18, 22, 20, 18, 23, 21, 22, 19, 18, 25, 19, 18, 17, 23, 16, 22, 21, 23, 19, 24, 21, 15, 22], [24, 18, 19, 18, 25, 19, 15, 25, 17, 22, 23, 21, 19, 18, 25, 23, 16, 24, 25, 23, 22, 15, 23, 15, 20, 23, 23, 20, 25, 17], [15, 17, 21, 23, 16, 21, 19, 23, 18, 17, 25, 18, 20, 15, 21, 15, 15, 16, 24, 25, 21, 18, 19, 24, 22, 19, 17, 20, 18, 21]];
c = [[[0, 0, 0, 0, 0, 0, 0, 0, 0, 0, 0, 0, 0, 0, 0, 0, 0, 0, 0, 0, 0, 0, 0, 0, 0, 0, 0, 0, 0, 0], [32, 32, 43, 42, 34, 43, 40, 37, 38, 30, 38, 30, 49, 38, 42, 34, 34, 50, 33, 36, 49, 34, 48, 44, 45, 30, 47, 32, 42, 39], [40, 34, 44, 47, 40, 38, 43, 40, 38, 44, 49, 50, 46, 32, 33, 35, 36, 38, 39, 44, 32, 35, 43, 39, 44, 37, 32, 33, 43, 36], [46, 36, 34, 39, 38, 36, 50, 35, 39, 50, 38, 32, 31, 50, 32, 50, 45, 46, 49, 45, 46, 37, 49, 49, 31, 33, 36, 45, 50, 34], [40, 46, 37, 33, 35, 47, 45, 32, 38, 50, 34, 30, 35, 36, 34, 43, 43, 49, 35, 36, 38, 32, 31, 31, 37, 44, 40, 34, 30, 41], [36, 41, 39, 44, 50, 39, 42, 39, 47, 46, 40, 32, 38, 41, 49, 33, 40, 43, 42, 34, 44, 30, 32, 32, 45, 34, 40, 39, 41, 36], [45, 39, 34, 43, 48, 49, 30, 41, 33, 47, 43, 44, 33, 48, 30, 48, 34, 45, 49, 39, 45, 50, 30, 38, 45, 47, 34, 48, 39, 41], [45, 50, 47, 47, 45, 47, 37, 34, 33, 33, 42, 43, 48, 36, 50, 47, 41, 42, 36, 41, 48, 30, 47, 45, 42, 41, 38, 45, 47, 47], [46, 33, 40, 42, 42, 30, 45, 32, 38, 32, 36, 37, 47, 48, 36, 36, 34, 35, 35, 40, 34, 39, 35, 44, 50, 31, 35, 49, 49, 40], [33, 46, 40, 32, 31, 42, 38, 44, 39, 48, 48, 48, 30, 35, 31, 49, 41, 40, 34, 30, 38, 34, 32, 36, 43, 40, 50, 47, 37, 44]], [[0, 0, 0, 0, 0, 0, 0, 0, 0, 0, 0, 0, 0, 0, 0, 0, 0, 0, 0, 0, 0, 0, 0, 0, 0, 0, 0, 0, 0, 0], [0, 0, 0, 0, 0, 0, 0, 0, 0, 0, 0, 0, 0, 0, 0, 0, 0, 0, 0, 0, 0, 0, 0, 0, 0, 0, 0, 0, 0, 0], [34, 44, 48, 50, 36, 43, 38, 47, 30, 39, 44, 39, 47, 40, 46, 38, 31, 46, 35, 38, 46, 37, 38, 43, 42, 31, 49, 31, 34, 50], [41, 46, 35, 39, 31, 42, 35, 41, 47, 47, 40, 30, 45, 43, 40, 38, 39, 43, 39, 34, 34, 43, 46, 46, 39, 40, 44, 35, 49, 44], [48, 50, 46, 47, 40, 30, 40, 42, 43, 45, 48, 49, 32, 33, 44, 50, 39, 38, 47, 37, 45, 36, 30, 45, 43, 47, 38, 41, 39, 41], [43, 43, 39, 50, 47, 45, 37, 40, 32, 35, 42, 49, 46, 46, 36, 35, 48, 49, 50, 41, 47, 42, 44, 38, 40, 39, 42, 32, 33, 31], [39, 40, 30, 46, 42, 46, 50, 43, 47, 42, 33, 40, 30, 45, 32, 48, 38, 46, 36, 35, 44, 33, 32, 48, 50, 41, 38, 45, 31, 35], [31, 44, 50, 33, 47, 36, 37, 30, 32, 39, 48, 31, 43, 34, 45, 32, 38, 41, 39, 33, 45, 30, 44, 45, 42, 43, 43, 46, 38, 37], [45, 39, 33, 47, 32, 50, 31, 34, 36, 38, 34, 31, 35, 45, 48, 45, 34, 41, 38, 46, 47, 35, 43, 45, 40, 30, 50, 43, 48, 34], [34, 46, 40, 43, 34, 33, 34, 36, 40, 32, 33, 49, 34, 33, 38, 50, 41, 31, 43, 50, 46, 44, 34, 50, 50, 36, 47, 37, 33, 46]], [[0, 0, 0, 0, 0, 0, 0, 0, 0, 0, 0, 0, 0, 0, 0, 0, 0, 0, 0, 0, 0, 0, 0, 0, 0, 0, 0, 0, 0, 0], [0, 0, 0, 0, 0, 0, 0, 0, 0, 0, 0, 0, 0, 0, 0, 0, 0, 0, 0, 0, 0, 0, 0, 0, 0, 0, 0, 0, 0, 0], [0, 0, 0, 0, 0, 0, 0, 0, 0, 0, 0, 0, 0, 0, 0, 0, 0, 0, 0, 0, 0, 0, 0, 0, 0, 0, 0, 0, 0, 0], [41, 40, 33, 37, 42, 36, 30, 30, 43, 48, 31, 44, 49, 48, 43, 39, 46, 30, 36, 40, 35, 49, 48, 31, 38, 34, 37, 45, 35, 43], [48, 30, 35, 46, 39, 40, 37, 37, 43, 48, 35, 42, 37, 40, 46, 33, 30, 33, 43, 50, 43, 49, 42, 34, 34, 46, 34, 45, 36, 43], [36, 47, 30, 43, 31, 37, 38, 36, 46, 48, 45, 44, 32, 38, 43, 35, 47, 41, 32, 44, 33, 47, 34, 34, 33, 34, 34, 35, 38, 47], [44, 34, 44, 31, 32, 33, 35, 50, 38, 50, 44, 48, 34, 45, 43, 39, 46, 31, 35, 43, 49, 43, 42, 49, 46, 50, 36, 45, 41, 32], [34, 50, 33, 45, 30, 42, 46, 33, 44, 40, 41, 39, 36, 46, 31, 30, 39, 40, 39, 33, 36, 49, 45, 50, 40, 50, 40, 45, 43, 50], [46, 48, 43, 37, 30, 38, 31, 36, 50, 39, 37, 31, 33, 45, 39, 50, 36, 42, 44, 30, 46, 37, 32, 50, 39, 35, 37, 47, 45, 42], [38, 45, 44, 47, 46, 34, 46, 37, 40, 30, 33, 44, 36, 50, 31, 43, 34, 47, 37, 40, 43, 48, 46, 39, 31, 42, 47, 50, 50, 47]], [[0, 0, 0, 0, 0, 0, 0, 0, 0, 0, 0, 0, 0, 0, 0, 0, 0, 0, 0, 0, 0, 0, 0, 0, 0, 0, 0, 0, 0, 0], [0, 0, 0, 0, 0, 0, 0, 0, 0, 0, 0, 0, 0, 0, 0, 0, 0, 0, 0, 0, 0, 0, 0, 0, 0, 0, 0, 0, 0, 0], [0, 0, 0, 0, 0, 0, 0, 0, 0, 0, 0, 0, 0, 0, 0, 0, 0, 0, 0, 0, 0, 0, 0, 0, 0, 0, 0, 0, 0, 0], [0, 0, 0, 0, 0, 0, 0, 0, 0, 0, 0, 0, 0, 0, 0, 0, 0, 0, 0, 0, 0, 0, 0, 0, 0, 0, 0, 0, 0, 0], [31, 43, 35, 46, 44, 46, 46, 42, 45, 43, 46, 49, 48, 35, 36, 35, 40, 48, 35, 46, 46, 50, 40, 41, 42, 49, 44, 41, 40, 34], [42, 46, 47, 36, 41, 30, 35, 44, 37, 32, 39, 35, 50, 49, 35, 50, 39, 45, 47, 46, 30, 41, 46, 43, 37, 40, 50, 39, 48, 40], [42, 40, 40, 44, 38, 42, 47, 30, 45, 47, 39, 48, 46, 38, 37, 37, 41, 34, 36, 39, 48, 50, 42, 35, 44, 38, 49, 32, 38, 49], [35, 32, 33, 34, 40, 31, 41, 39, 50, 34, 37, 46, 43, 39, 34, 34, 47, 49, 41, 45, 41, 35, 36, 46, 39, 50, 48, 49, 34, 36], [42, 47, 39, 30, 33, 45, 40, 35, 43, 30, 33, 34, 36, 48, 49, 35, 49, 39, 35, 41, 35, 37, 47, 38, 50, 34, 35, 32, 50, 46], [30, 49, 44, 34, 48, 44, 38, 33, 36, 45, 46, 37, 48, 33, 37, 37, 50, 32, 33, 38, 34, 37, 41, 44, 31, 38, 40, 47, 49, 37]], [[0, 0, 0, 0, 0, 0, 0, 0, 0, 0, 0, 0, 0, 0, 0, 0, 0, 0, 0, 0, 0, 0, 0, 0, 0, 0, 0, 0, 0, 0], [0, 0, 0, 0, 0, 0, 0, 0, 0, 0, 0, 0, 0, 0, 0, 0, 0, 0, 0, 0, 0, 0, 0, 0, 0, 0, 0, 0, 0, 0], [0, 0, 0, 0, 0, 0, 0, 0, 0, 0, 0, 0, 0, 0, 0, 0, 0, 0, 0, 0, 0, 0, 0, 0, 0, 0, 0, 0, 0, 0], [0, 0, 0, 0, 0, 0, 0, 0, 0, 0, 0, 0, 0, 0, 0, 0, 0, 0, 0, 0, 0, 0, 0, 0, 0, 0, 0, 0, 0, 0], [0, 0, 0, 0, 0, 0, 0, 0, 0, 0, 0, 0, 0, 0, 0, 0, 0, 0, 0, 0, 0, 0, 0, 0, 0, 0, 0, 0, 0, 0], [32, 37, 40, 33, 50, 33, 44, 38, 38, 43, 31, 49, 48, 43, 45, 38, 43, 30, 36, 34, 46, 50, 31, 44, 33, 44, 38, 48, 33, 44], [33, 46, 30, 44, 49, 39, 34, 50, 42, 34, 34, 50, 46, 47, 48, 43, 48, 47, 34, 47, 39, 39, 47, 50, 38, 31, 48, 41, 50, 31], [34, 31, 34, 45, 40, 50, 46, 30, 30, 47, 41, 30, 49, 34, 39, 46, 45, 49, 38, 47, 37, 31, 37, 41, 50, 44, 30, 49, 30, 30], [42, 40, 34, 43, 31, 44, 41, 32, 47, 30, 35, 32, 48, 41, 33, 40, 37, 39, 39, 49, 35, 34, 40, 39, 48, 33, 42, 40, 50, 30], [50, 49, 43, 49, 37, 46, 43, 40, 49, 49, 30, 41, 48, 41, 33, 32, 31, 32, 43, 48, 34, 39, 39, 35, 41, 47, 42, 48, 33, 38]], [[0, 0, 0, 0, 0, 0, 0, 0, 0, 0, 0, 0, 0, 0, 0, 0, 0, 0, 0, 0, 0, 0, 0, 0, 0, 0, 0, 0, 0, 0], [0, 0, 0, 0, 0, 0, 0, 0, 0, 0, 0, 0, 0, 0, 0, 0, 0, 0, 0, 0, 0, 0, 0, 0, 0, 0, 0, 0, 0, 0], [0, 0, 0, 0, 0, 0, 0, 0, 0, 0, 0, 0, 0, 0, 0, 0, 0, 0, 0, 0, 0, 0, 0, 0, 0, 0, 0, 0, 0, 0], [0, 0, 0, 0, 0, 0, 0, 0, 0, 0, 0, 0, 0, 0, 0, 0, 0, 0, 0, 0, 0, 0, 0, 0, 0, 0, 0, 0, 0, 0], [0, 0, 0, 0, 0, 0, 0, 0, 0, 0, 0, 0, 0, 0, 0, 0, 0, 0, 0, 0, 0, 0, 0, 0, 0, 0, 0, 0, 0, 0], [0, 0, 0, 0, 0, 0, 0, 0, 0, 0, 0, 0, 0, 0, 0, 0, 0, 0, 0, 0, 0, 0, 0, 0, 0, 0, 0, 0, 0, 0], [34, 36, 47, 47, 42, 44, 45, 32, 45, 48, 30, 36, 47, 32, 45, 35, 31, 49, 36, 44, 36, 30, 31, 39, 47, 40, 49, 37, 31, 32], [41, 45, 34, 35, 31, 44, 46, 50, 38, 39, 33, 50, 36, 37, 30, 38, 33, 38, 39, 33, 46, 43, 30, 32, 31, 33, 43, 49, 31, 44], [40, 48, 35, 45, 38, 37, 35, 30, 33, 31, 31, 48, 36, 33, 34, 48, 42, 43, 32, 45, 50, 42, 34, 43, 48, 36, 40, 38, 35, 30], [40, 38, 41, 48, 37, 30, 40, 32, 40, 42, 34, 38, 35, 46, 50, 37, 35, 49, 30, 48, 45, 43, 48, 36, 33, 40, 35, 35, 41, 35]], [[0, 0, 0, 0, 0, 0, 0, 0, 0, 0, 0, 0, 0, 0, 0, 0, 0, 0, 0, 0, 0, 0, 0, 0, 0, 0, 0, 0, 0, 0], [0, 0, 0, 0, 0, 0, 0, 0, 0, 0, 0, 0, 0, 0, 0, 0, 0, 0, 0, 0, 0, 0, 0, 0, 0, 0, 0, 0, 0, 0], [0, 0, 0, 0, 0, 0, 0, 0, 0, 0, 0, 0, 0, 0, 0, 0, 0, 0, 0, 0, 0, 0, 0, 0, 0, 0, 0, 0, 0, 0], [0, 0, 0, 0, 0, 0, 0, 0, 0, 0, 0, 0, 0, 0, 0, 0, 0, 0, 0, 0, 0, 0, 0, 0, 0, 0, 0, 0, 0, 0], [0, 0, 0, 0, 0, 0, 0, 0, 0, 0, 0, 0, 0, 0, 0, 0, 0, 0, 0, 0, 0, 0, 0, 0, 0, 0, 0, 0, 0, 0], [0, 0, 0, 0, 0, 0, 0, 0, 0, 0, 0, 0, 0, 0, 0, 0, 0, 0, 0, 0, 0, 0, 0, 0, 0, 0, 0, 0, 0, 0], [0, 0, 0, 0, 0, 0, 0, 0, 0, 0, 0, 0, 0, 0, 0, 0, 0, 0, 0, 0, 0, 0, 0, 0, 0, 0, 0, 0, 0, 0], [34, 30, 34, 50, 47, 31, 35, 30, 34, 40, 37, 33, 45, 30, 41, 33, 40, 31, 47, 35, 47, 42, 33, 44, 45, 32, 41, 34, 43, 42], [40, 30, 43, 33, 35, 39, 35, 44, 32, 48, 31, 31, 47, 46, 49, 34, 40, 34, 39, 38, 46, 40, 47, 48, 42, 39, 45, 35, 31, 32], [47, 37, 32, 39, 41, 36, 50, 35, 38, 43, 48, 46, 35, 40, 50, 36, 35, 45, 38, 49, 49, 36, 36, 30, 34, 38, 49, 47, 43, 32]], [[0, 0, 0, 0, 0, 0, 0, 0, 0, 0, 0, 0, 0, 0, 0, 0, 0, 0, 0, 0, 0, 0, 0, 0, 0, 0, 0, 0, 0, 0], [0, 0, 0, 0, 0, 0, 0, 0, 0, 0, 0, 0, 0, 0, 0, 0, 0, 0, 0, 0, 0, 0, 0, 0, 0, 0, 0, 0, 0, 0], [0, 0, 0, 0, 0, 0, 0, 0, 0, 0, 0, 0, 0, 0, 0, 0, 0, 0, 0, 0, 0, 0, 0, 0, 0, 0, 0, 0, 0, 0], [0, 0, 0, 0, 0, 0, 0, 0, 0, 0, 0, 0, 0, 0, 0, 0, 0, 0, 0, 0, 0, 0, 0, 0, 0, 0, 0, 0, 0, 0], [0, 0, 0, 0, 0, 0, 0, 0, 0, 0, 0, 0, 0, 0, 0, 0, 0, 0, 0, 0, 0, 0, 0, 0, 0, 0, 0, 0, 0, 0], [0, 0, 0, 0, 0, 0, 0, 0, 0, 0, 0, 0, 0, 0, 0, 0, 0, 0, 0, 0, 0, 0, 0, 0, 0, 0, 0, 0, 0, 0], [0, 0, 0, 0, 0, 0, 0, 0, 0, 0, 0, 0, 0, 0, 0, 0, 0, 0, 0, 0, 0, 0, 0, 0, 0, 0, 0, 0, 0, 0], [0, 0, 0, 0, 0, 0, 0, 0, 0, 0, 0, 0, 0, 0, 0, 0, 0, 0, 0, 0, 0, 0, 0, 0, 0, 0, 0, 0, 0, 0], [35, 32, 32, 33, 46, 34, 32, 34, 30, 48, 33, 41, 32, 31, 34, 32, 36, 46, 39, 39, 35, 42, 35, 31, 39, 49, 35, 39, 48, 37], [45, 38, 39, 41, 45, 49, 33, 48, 50, 33, 30, 34, 39, 41, 44, 38, 36, 34, 31, 31, 48, 41, 45, 40, 34, 40, 36, 41, 46, 30]], [[0, 0, 0, 0, 0, 0, 0, 0, 0, 0, 0, 0, 0, 0, 0, 0, 0, 0, 0, 0, 0, 0, 0, 0, 0, 0, 0, 0, 0, 0], [0, 0, 0, 0, 0, 0, 0, 0, 0, 0, 0, 0, 0, 0, 0, 0, 0, 0, 0, 0, 0, 0, 0, 0, 0, 0, 0, 0, 0, 0], [0, 0, 0, 0, 0, 0, 0, 0, 0, 0, 0, 0, 0, 0, 0, 0, 0, 0, 0, 0, 0, 0, 0, 0, 0, 0, 0, 0, 0, 0], [0, 0, 0, 0, 0, 0, 0, 0, 0, 0, 0, 0, 0, 0, 0, 0, 0, 0, 0, 0, 0, 0, 0, 0, 0, 0, 0, 0, 0, 0], [0, 0, 0, 0, 0, 0, 0, 0, 0, 0, 0, 0, 0, 0, 0, 0, 0, 0, 0, 0, 0, 0, 0, 0, 0, 0, 0, 0, 0, 0], [0, 0, 0, 0, 0, 0, 0, 0, 0, 0, 0, 0, 0, 0, 0, 0, 0, 0, 0, 0, 0, 0, 0, 0, 0, 0, 0, 0, 0, 0], [0, 0, 0, 0, 0, 0, 0, 0, 0, 0, 0, 0, 0, 0, 0, 0, 0, 0, 0, 0, 0, 0, 0, 0, 0, 0, 0, 0, 0, 0], [0, 0, 0, 0, 0, 0, 0, 0, 0, 0, 0, 0, 0, 0, 0, 0, 0, 0, 0, 0, 0, 0, 0, 0, 0, 0, 0, 0, 0, 0], [0, 0, 0, 0, 0, 0, 0, 0, 0, 0, 0, 0, 0, 0, 0, 0, 0, 0, 0, 0, 0, 0, 0, 0, 0, 0, 0, 0, 0, 0], [31, 42, 49, 48, 50, 40, 48, 36, 35, 48, 47, 41, 44, 34, 35, 30, 42, 46, 44, 46, 30, 41, 30, 38, 34, 33, 32, 49, 34, 50]], [[0, 0, 0, 0, 0, 0, 0, 0, 0, 0, 0, 0, 0, 0, 0, 0, 0, 0, 0, 0, 0, 0, 0, 0, 0, 0, 0, 0, 0, 0], [0, 0, 0, 0, 0, 0, 0, 0, 0, 0, 0, 0, 0, 0, 0, 0, 0, 0, 0, 0, 0, 0, 0, 0, 0, 0, 0, 0, 0, 0], [0, 0, 0, 0, 0, 0, 0, 0, 0, 0, 0, 0, 0, 0, 0, 0, 0, 0, 0, 0, 0, 0, 0, 0, 0, 0, 0, 0, 0, 0], [0, 0, 0, 0, 0, 0, 0, 0, 0, 0, 0, 0, 0, 0, 0, 0, 0, 0, 0, 0, 0, 0, 0, 0, 0, 0, 0, 0, 0, 0], [0, 0, 0, 0, 0, 0, 0, 0, 0, 0, 0, 0, 0, 0, 0, 0, 0, 0, 0, 0, 0, 0, 0, 0, 0, 0, 0, 0, 0, 0], [0, 0, 0, 0, 0, 0, 0, 0, 0, 0, 0, 0, 0, 0, 0, 0, 0, 0, 0, 0, 0, 0, 0, 0, 0, 0, 0, 0, 0, 0], [0, 0, 0, 0, 0, 0, 0, 0, 0, 0, 0, 0, 0, 0, 0, 0, 0, 0, 0, 0, 0, 0, 0, 0, 0, 0, 0, 0, 0, 0], [0, 0, 0, 0, 0, 0, 0, 0, 0, 0, 0, 0, 0, 0, 0, 0, 0, 0, 0, 0, 0, 0, 0, 0, 0, 0, 0, 0, 0, 0], [0, 0, 0, 0, 0, 0, 0, 0, 0, 0, 0, 0, 0, 0, 0, 0, 0, 0, 0, 0, 0, 0, 0, 0, 0, 0, 0, 0, 0, 0], [0, 0, 0, 0, 0, 0, 0, 0, 0, 0, 0, 0, 0, 0, 0, 0, 0, 0, 0, 0, 0, 0, 0, 0, 0, 0, 0, 0, 0, 0]]];

q = [[[22], [10], [24], [8], [22], [13], [15], [16], [22], [24], [20], [22], [12], [18], [6], [25], [20], [16], [15], [8], [24], [9], [9], [20], [16], [14], [15], [23], [10], [20]], [[6], [15], [13], [22], [13], [8], [19], [25], [16], [11], [24], [16], [24], [20], [16], [10], [16], [9], [15], [14], [21], [5], [23], [8], [9], [8], [22], [7], [8], [6]], [[8], [6], [25], [5], [17], [25], [7], [11], [17], [10], [23], [10], [7], [20], [13], [20], [6], [15], [14], [10], [25], [21], [20], [21], [20], [12], [21], [20], [18], [6]], [[24], [9], [9], [6], [11], [5], [21], [17], [10], [16], [7], [6], [8], [14], [9], [7], [12], [8], [17], [6], [20], [15], [17], [25], [25], [19], [5], [14], [12], [22]], [[14], [14], [11], [21], [19], [12], [16], [5], [15], [7], [11], [14], [23], [6], [22], [6], [19], [14], [8], [15], [25], [15], [6], [5], [12], [22], [18], [21], [6], [18]], [[5], [22], [7], [13], [21], [9], [5], [23], [9], [24], [22], [22], [9], [22], [9], [6], [13], [22], [16], [19], [18], [21], [15], [9], [20], [12], [23], [13], [17], [6]], [[24], [16], [12], [16], [14], [11], [22], [23], [18], [6], [20], [9], [8], [16], [19], [24], [7], [10], [25], [24], [19], [22], [5], [17], [6], [13], [23], [7], [24], [23]], [[8], [25], [11], [19], [7], [13], [15], [21], [24], [20], [7], [16], [16], [6], [11], [25], [13], [13], [12], [21], [24], [11], [23], [22], [7], [9], [20], [8], [19], [15]], [[9], [22], [20], [19], [17], [20], [7], [15], [9], [19], [6], [10], [12], [25], [21], [11], [6], [10], [19], [15], [25], [8], [24], [25], [16], [14], [24], [20], [23], [17]], [[17], [22], [6], [10], [23], [21], [20], [23], [8], [13], [11], [21], [25], [23], [9], [20], [19], [8], [22], [25], [24], [21], [5], [9], [20], [23], [12], [10], [15], [12]]];
Q = [[39], [34], [36], [31], [34], [36], [38], [36], [39], [39]];
